c Sudoku solution
p cnf 729 0
162 0
187 0
193 0
228 0
335 0
347 0
372 0
419 0
481 0
518 0
594 0
616 0
648 0
651 0
665 0
689 0
774 0
786 0
814 0
111 0
313 0
875 0
892 0
582 0
697 0
495 0
673 0
576 0
478 0
525 0
531 0
977 0
271 0
361 0
179 0
158 0
145 0
285 0
384 0
296 0
398 0
356 0
329 0
959 0
755 0
915 0
839 0
799 0
991 0
452 0
254 0
966 0
944 0
742 0
841 0
721 0
717 0
826 0
212 0
237 0
124 0
136 0
622 0
634 0
923 0
932 0
738 0
763 0
857 0
868 0
883 0
988 0
427 0
433 0
446 0
464 0
553 0
549 0
567 0
243 0
269 0
